(set-logic QF_S)
(set-option :strings-exp true)
(set-option :produce-models true)
(declare-fun sigmaStar_0 () String)
(declare-fun sigmaStar_1 () String)
(declare-fun sigmaStar_2 () String)
(declare-fun sigmaStar_3 () String)
(declare-fun sigmaStar_4 () String)
(declare-fun sigmaStar_5 () String)
(declare-fun literal_10 () String)
(declare-fun x_9 () String)
(declare-fun literal_8 () String)
(declare-fun x_11 () String)
(declare-fun literal_12 () String)
(declare-fun x_13 () String)
(assert (= literal_10 "\x3c\x74\x64\x20\x73\x74\x79\x6c\x65\x3d\x22\x76\x65\x72\x74\x69\x63\x61\x6c\x2d\x61\x6c\x69\x67\x6e\x3a\x20\x74\x6f\x70\x3b\x20\x77\x69\x64\x74\x68\x3a\x20"))
(assert (= literal_8 "\x31\x38\x30"))
(assert (or (= x_9 literal_8) (= x_9 sigmaStar_3)))
(assert (= x_11 (str.++ literal_10 x_9)))
(assert (= literal_12 "\x70\x78\x3b\x22\x20\x69\x64\x3d\x22\x6c\x65\x66\x74\x2d\x63\x6f\x6c\x75\x6d\x6e\x22\x3e"))
(assert (= x_13 (str.++ x_11 literal_12)))
(assert (str.in.re x_13 (re.++ (re.* re.allchar) (re.++ (str.to.re "\x5c\x3c\x53\x43\x52\x49\x50\x54") (re.* re.allchar)))))
(check-sat)
(get-model)
